WARNING: for repeatability, setting FPU to use double precision
============================[ Problem Statistics ]=============================
|                                                                             |
|  Number of variables:           100                                         |
|  Number of clauses:             449                                         |
|  Parse time:                   0.00 s                                       |
|  Eliminated clauses:           0.00 Mb                                      |
|  Simplification time:          0.00 s                                       |
|                                                                             |
============================[ Search Statistics ]==============================
| Conflicts |          ORIGINAL         |          LEARNT          | Progress |
|           |    Vars  Clauses Literals |    Limit  Clauses Lit/Cl |          |
===============================================================================
|       100 |      95      435     1340 |      159      100      7 |  0.010 % |
===============================================================================
restarts              : 2
conflicts             : 196            (77778 /sec)
decisions             : 253            (0.00 % random) (100397 /sec)
propagations          : 4173           (1655952 /sec)
conflict literals     : 1196           (14.69 % deleted)
Memory used           : 13.00 MB
CPU time              : 0.00252 s

SATISFIABLE
